SPARKNaCl/why3-cvc5/sparknacl-core.adb_289_16_range_check4_1.smt2
;; produced by cvc5.drv ;;
(set-logic ALL)
(set-info :smt-lib-version 2.6)
;;; generated by SMT-LIB2 driver
;;; SMT-LIB2 driver: bit-vectors, common part
;;; SMT-LIB2: integer arithmetic
;; "pow2"
(declare-fun pow2 (Int) Int)

(declare-const two_power_size_minus_one Int)

;; "two_power_size_minus_one_val"
(assert (= two_power_size_minus_one (pow2 (- 8 1))))

;; "min"
(define-fun min ((x Int) (y Int)) Int
  (ite (<= x y) x y))

;; "max"
(define-fun max ((x Int) (y Int)) Int
  (ite (<= x y) y x))

;; "Min_r"
(assert (forall ((x Int) (y Int)) (=> (<= y x) (= (min x y) y))))

;; "Max_l"
(assert (forall ((x Int) (y Int)) (=> (<= y x) (= (max x y) x))))

;; "Min_comm"
(assert (forall ((x Int) (y Int)) (= (min x y) (min y x))))

;; "Max_comm"
(assert (forall ((x Int) (y Int)) (= (max x y) (max y x))))

;; "Min_assoc"
(assert
  (forall ((x Int) (y Int) (z Int)) (= (min (min x y) z) (min x (min y z)))))

;; "Max_assoc"
(assert
  (forall ((x Int) (y Int) (z Int)) (= (max (max x y) z) (max x (max y z)))))

(declare-const two_power_size_minus_one1 Int)

;; "two_power_size_minus_one_val"
(assert (= two_power_size_minus_one1 (pow2 (- 32 1))))

(declare-sort byte 0)

;; "to_rep"
(declare-fun to_rep (byte) (_ BitVec 8))

;; "of_rep"
(declare-fun of_rep ((_ BitVec 8)) byte)

;; "inversion_axiom"
(assert
  (forall ((x byte)) (! (= (of_rep (to_rep x)) x) :pattern ((to_rep x)) )))

;; "range_axiom"
(assert true)

;; "coerce_axiom"
(assert
  (forall ((x (_ BitVec 8)))
    (! (= (to_rep (of_rep x)) x) :pattern ((to_rep (of_rep x))) )))

(declare-sort map1 0)

;; "has_bounds"
(declare-fun has_bounds (map1
  Int
  Int) Bool)

;; "get"
(declare-fun get (map1
  Int) byte)

(declare-datatypes ((us_split_fields 0))
  (((us_split_fieldsqtmk (rec__ada___sparknacl__core__salsa20_key__f map1)))))

(declare-datatypes ((us_rep 0))
  (((us_repqtmk (us_split_fields1 us_split_fields)))))

;; "dynamic_invariant"
(define-fun dynamic_invariant ((temp___expr_300 us_rep) (temp___is_init_296 Bool) (temp___skip_constant_297 Bool) (temp___do_toplevel_298 Bool) (temp___do_typ_inv_299 Bool)) Bool
  (has_bounds
    (rec__ada___sparknacl__core__salsa20_key__f
      (us_split_fields1 temp___expr_300))
    0
    31))

(declare-const input map1)

(declare-const k us_rep)

(declare-const c map1)

(declare-sort u32 0)

;; "to_rep"
(declare-fun to_rep1 (u32) (_ BitVec 32))

;; "of_rep"
(declare-fun of_rep1 ((_ BitVec 32)) u32)

;; "inversion_axiom"
(assert
  (forall ((x u32)) (! (= (of_rep1 (to_rep1 x)) x) :pattern ((to_rep1 x)) )))

;; "range_axiom"
(assert true)

;; "coerce_axiom"
(assert
  (forall ((x (_ BitVec 32)))
    (! (= (to_rep1 (of_rep1 x)) x) :pattern ((to_rep1 (of_rep1 x))) )))

(declare-sort map2 0)

;; "has_bounds"
(declare-fun has_bounds1 (map2
  Int
  Int) Bool)

(declare-sort tinteger_32B 0)

;; "tinteger_32B'int"
(declare-fun tinteger_32Bqtint (tinteger_32B) Int)

;; "tinteger_32B'axiom"
(assert
  (forall ((i tinteger_32B))
    (and
      (<= (- 2147483648) (tinteger_32Bqtint i))
      (<= (tinteger_32Bqtint i) 2147483647))))

;; "in_range"
(define-fun in_range ((x Int)) Bool
  (and (<= (- 2147483648) x) (<= x 2147483647)))

;; "to_rep"
(define-fun to_rep2 ((x tinteger_32B)) Int
  (tinteger_32Bqtint x))

;; "of_rep"
(declare-fun of_rep2 (Int) tinteger_32B)

;; "inversion_axiom"
(assert
  (forall ((x tinteger_32B))
    (! (= (of_rep2 (to_rep2 x)) x) :pattern ((to_rep2 x)) )))

;; "range_axiom"
(assert
  (forall ((x tinteger_32B))
    (! (in_range (to_rep2 x)) :pattern ((to_rep2 x)) )))

;; "coerce_axiom"
(assert
  (forall ((x Int))
    (! (=> (in_range x) (= (to_rep2 (of_rep2 x)) x)) :pattern ((to_rep2
                                                                 (of_rep2 x))) )))

;; "temp_____aggregate_def_789"
(declare-fun temp_____aggregate_def_789 ((_ BitVec 8)) map1)

;; Goal "def'vc"
;; File "sparknacl-core.ads", line 55, characters 0-0
(assert
  (not
  (forall ((output map1) (x map2) (y map2))
    (=>
      (has_bounds output 0 63)
      (=>
        (has_bounds input 0 15)
        (=>
          (dynamic_invariant k true false true true)
          (=>
            (has_bounds c 0 15)
            (=>
              (has_bounds1 x 0 15)
              (=>
                (has_bounds1 y 0 15)
                (forall ((x1 map2) (y1 map2))
                  (=>
                    (and (has_bounds1 x1 0 15) (has_bounds1 y1 0 15))
                    (forall ((temp___793 map1))
                      (=>
                        (and
                          (and
                            (has_bounds temp___793 0 63)
                            (forall ((temp___792 Int))
                              (! (=>
                                   (and (<= 0 temp___792) (<= temp___792 63))
                                   (= (to_rep (get temp___793 temp___792)) #x00)) :pattern (
                              (get
                                temp___793
                                temp___792)) )))
                          (= temp___793 (temp_____aggregate_def_789 #x00)))
                        (forall ((output1 map1))
                          (=>
                            (= output1 temp___793)
                            (forall ((i Int))
                              (=>
                                (= i 0)
                                (=>
                                  (= (and (ite (<= 0 i) true false) (ite (<= i 15)
                                                                    true
                                                                    false)) true)
                                  (forall ((output2 map1) (i1 Int))
                                    (=>
                                      (= (and (ite (has_bounds output2 0 63)
                                                true
                                                false) (ite (and
                                                              (<= 0 i1)
                                                              (<= i1 15))
                                                         true
                                                         false)) true)
                                      (let ((temp___798 (+ (* 4 i1) 3)))
                                        (=>
                                          (<= (* 4 i1) temp___798)
                                          (<= temp___798 63)))))))))))))))))))))))

(check-sat)
